tsp_instances/TSP50/instance67.tsp
NODE_COORD_SECTION
0 10 22
1 153 28
2 169 59
3 146 12
4 1 97
5 103 175
6 54 43
7 27 122
8 70 131
9 186 36
10 53 100
11 117 63
12 37 189
13 95 102
14 56 186
15 72 86
16 43 97
17 168 150
18 92 132
19 40 172
20 26 49
21 107 112
22 172 31
23 5 188
24 48 182
25 169 169
26 84 34
27 183 40
28 189 39
29 169 129
30 90 54
31 51 63
32 185 108
33 119 59
34 177 95
35 37 42
36 12 158
37 38 66
38 55 126
39 132 76
40 0 122
41 148 75
42 119 139
43 56 20
44 14 121
45 1 145
46 178 151
47 114 14
48 61 118
49 171 146
