tsp_instances/TSP50/instance67.opt.tour
TOUR_SECTION
1
21
38
32
16
14
22
19
9
39
49
11
17
8
45
5
41
46
37
24
13
20
25
15
6
43
26
47
18
50
30
33
35
40
42
3
28
29
10
23
2
4
48
34
12
31
27
44
7
36
-1